W=8;
H=5;

MAX_TIME=15;
MAX_TRACKS=14;

TARGET=(3,8);

TRAINS=[(3,1,RIGHT),(3,3,RIGHT),(3,5,RIGHT)];

INIT_POS=[
(3,1,STRAIGHT_RL),
(3,3,STRAIGHT_RL),
(3,5,STRAIGHT_RL),
(3,8,STRAIGHT_RL),
];
TUNNEL_PAIRS=[
  (1, 5, DOWN, 5, 3, TOP),
  (1, 3, DOWN, 5, 5, TOP),
];

GATES=[];
ACTIVATIONS=[];

DSWITCHES=[];

STATIONS=[];
